12 66
1 2 1
1 3 3
1 4 4
1 5 3
1 6 3
1 7 4
1 8 2
1 9 4
1 10 5
1 11 3
1 12 4
2 3 3
2 4 5
2 5 1
2 6 5
2 7 5
2 8 5
2 9 2
2 10 3
2 11 4
2 12 4
3 4 1
3 5 1
3 6 2
3 7 4
3 8 4
3 9 3
3 10 4
3 11 2
3 12 4
4 5 4
4 6 4
4 7 4
4 8 4
4 9 1
4 10 3
4 11 4
4 12 3
5 6 4
5 7 4
5 8 3
5 9 3
5 10 3
5 11 3
5 12 2
6 7 4
6 8 5
6 9 5
6 10 5
6 11 2
6 12 5
7 8 5
7 9 3
7 10 5
7 11 5
7 12 5
8 9 3
8 10 5
8 11 3
8 12 1
9 10 4
9 11 3
9 12 2
10 11 2
10 12 1
11 12 4
